13 78 4
0 1 2.00
0 2 26.00
0 3 2.00
0 4 26.00
0 5 2.00
0 6 26.00
0 7 26.00
0 8 26.00
0 9 26.00
0 10 26.00
0 11 26.00
0 12 26.00
1 2 1.00
1 3 26.00
1 4 26.00
1 5 26.00
1 6 1.00
1 7 2.00
1 8 26.00
1 9 26.00
1 10 26.00
1 11 26.00
1 12 26.00
2 3 1.00
2 4 26.00
2 5 26.00
2 6 26.00
2 7 26.00
2 8 1.00
2 9 26.00
2 10 26.00
2 11 26.00
2 12 26.00
3 4 1.00
3 5 26.00
3 6 26.00
3 7 26.00
3 8 26.00
3 9 2.00
3 10 26.00
3 11 26.00
3 12 26.00
4 5 1.00
4 6 26.00
4 7 26.00
4 8 26.00
4 9 26.00
4 10 1.00
4 11 26.00
4 12 26.00
5 6 1.00
5 7 26.00
5 8 26.00
5 9 26.00
5 10 26.00
5 11 2.00
5 12 26.00
6 7 26.00
6 8 26.00
6 9 26.00
6 10 26.00
6 11 26.00
6 12 1.00
7 8 2.00
7 9 26.00
7 10 26.00
7 11 26.00
7 12 2.00
8 9 2.00
8 10 26.00
8 11 26.00
8 12 26.00
9 10 2.00
9 11 26.00
9 12 26.00
10 11 2.00
10 12 26.00
11 12 2.00
0
7
9
11
